unsat
(:max-memory         18.43
 :memory             18.33
 :nlsat-arith-var    3
 :nlsat-atoms        24
 :nlsat-bool-var     4
 :nlsat-clauses      8
 :nlsat-conflicts    11
 :nlsat-decisions    1
 :nlsat-propagations 40
 :nlsat-stages       10
 :num-allocs         51374
 :rlimit-count       3426
 :time               0.00
 :total-time         0.02)
